# 99480
param n := 25;
param s := 1;
set E :=  (0,3) (0,16) (1,12) (1,13) (1,23) (1,24) (2,9) (3,20) (3,21) (4,15) (4,19) (4,22) (4,24) (5,13) (5,19) (6,8) (6,24) (7,10) (7,21) (8,17) (9,22) (10,17) (10,19) (11,15) (11,18) (12,15) (12,22) (12,23) (13,14) (13,20) (16,18) (17,19);
